44
3 77 118 112 
2 15 67 
3 48 9 87 
3 14 50 2 
2 79 16 
3 33 12 105 
3 36 74 18 
2 94 120 
3 75 3 96 
3 110 11 10 
2 31 22 
2 4 91 
3 116 37 83 
3 86 82 60 
3 34 84 29 
3 57 73 104 
3 41 5 54 
2 55 115 
3 23 20 13 
3 81 93 103 
3 42 26 43 
2 100 28 
2 106 46 
3 85 8 69 
3 111 47 66 
3 56 52 44 
3 21 64 17 
3 97 51 117 
3 40 101 98 
2 76 45 
3 109 95 68 
3 88 80 102 
2 71 19 
3 53 39 25 
3 78 7 89 
3 114 32 24 
3 113 65 70 
3 72 107 90 
3 108 92 6 
3 59 61 63 
3 99 27 35 
2 30 38 
2 1 49 
3 58 119 62 
